0 7 178
0 8 147
1 25 585
1 28 381
2 21 207
2 22 262
3 25 102
3 34 451
4 41 370
4 47 97
5 27 153
5 36 66
6 17 54
6 27 85
7 37 312
8 39 214
9 23 292
9 44 401
10 11 186
10 12 242
11 14 129
12 24 169
13 22 192
13 24 133
14 39 175
15 21 140
15 40 393
16 26 117
16 42 139
17 43 112
18 26 64
18 36 42
19 32 207
19 46 246
20 31 393
20 46 225
23 41 403
28 33 474
29 35 233
29 42 127
30 37 183
30 43 139
31 38 169
32 45 134
33 40 356
34 44 146
35 45 286
38 47 317
The cost of the best tour is: 10628.0
